26 4
80 84 44 91 74 48 40 57 32 64 35 61 95 81 63 71 76 87 76 72 63 104 88 85 34 26
82 83 31 101 74 26 63 54 15 73 29 43 88 87 73 79 77 81 92 77 64 102 87 94 17 15
103 84 61 91 60 49 65 58 33 55 28 40 104 95 68 49 78 90 73 67 55 109 113 88 5 21
102 91 32 95 47 28 56 77 40 51 47 58 97 89 84 79 79 75 76 89 82 98 113 113 30 35
